MARKOV
233
 2 2 2 2 2 2 2 2 2 2 2 2 2 2 2 2 2 2 2 2 2 2 2 2 2 2 2 2 2 2 2 2 2 2 2 2 2 2 2 2 2 2 2 2 2 2 2 2 2 2 2 2 2 2 2 2 2 2 2 2 2 2 2 2 2 2 2 2 2 2 2 2 2 2 2 2 2 2 2 2 2 2 2 2 2 2 2 2 2 2 2 2 2 2 2 2 2 2 2 2 2 2 2 2 2 2 2 2 2 2 2 2 2 2 2 2 2 2 2 2 2 2 2 2 2 2 2 2 2 2 2 2 2 2 2 2 2 2 2 2 2 2 2 2 2 2 2 2 2 2 2 2 2 2 2 2 2 2 2 2 2 2 2 2 2 2 2 2 2 2 2 2 2 2 2 2 2 2 2 2 2 2 2 2 2 2 2 2 2 2 2 2 2 2 2 2 2 2 2 2 2 2 2 2 2 2 2 2 2 2 2 2 2 2 2 2 2 2 2 2 2 2 2 2 2 2 2 2 2 2 2 2 2
856
1	0 
1	1 
1	2 
1	3 
1	4 
1	5 
1	6 
1	7 
1	8 
1	9 
1	10 
1	11 
1	12 
1	13 
1	14 
1	15 
1	16 
1	17 
1	18 
1	19 
1	20 
1	21 
1	22 
1	23 
1	24 
1	25 
1	26 
1	27 
1	28 
1	29 
1	30 
1	31 
1	32 
1	33 
1	34 
1	35 
1	36 
1	37 
1	38 
1	39 
1	40 
1	41 
1	42 
1	43 
1	44 
1	45 
1	46 
1	47 
1	48 
1	49 
1	50 
1	51 
1	52 
1	53 
1	54 
1	55 
1	56 
1	57 
1	58 
1	59 
1	60 
1	61 
1	62 
1	63 
1	64 
1	65 
1	66 
1	67 
1	68 
1	69 
1	70 
1	71 
1	72 
1	73 
1	74 
1	75 
1	76 
1	77 
1	78 
1	79 
1	80 
1	81 
1	82 
1	83 
1	84 
1	85 
1	86 
1	87 
1	88 
1	89 
1	90 
1	91 
1	92 
1	93 
1	94 
1	95 
1	96 
1	97 
1	98 
1	99 
1	100 
1	101 
1	102 
1	103 
1	104 
1	105 
1	106 
1	107 
1	108 
1	109 
1	110 
1	111 
1	112 
1	113 
1	114 
1	115 
1	116 
1	117 
1	118 
1	119 
1	120 
1	121 
1	122 
1	123 
1	124 
1	125 
1	126 
1	127 
1	128 
1	129 
1	130 
1	131 
1	132 
1	133 
1	134 
1	135 
1	136 
1	137 
1	138 
1	139 
1	140 
1	141 
1	142 
1	143 
1	144 
1	145 
1	146 
1	147 
1	148 
1	149 
1	150 
1	151 
1	152 
1	153 
1	154 
1	155 
1	156 
1	157 
1	158 
1	159 
1	160 
1	161 
1	162 
1	163 
1	164 
1	165 
1	166 
1	167 
1	168 
1	169 
1	170 
1	171 
1	172 
1	173 
1	174 
1	175 
1	176 
1	177 
1	178 
1	179 
1	180 
1	181 
1	182 
1	183 
1	184 
1	185 
1	186 
1	187 
1	188 
1	189 
1	190 
1	191 
1	192 
1	193 
1	194 
1	195 
1	196 
1	197 
1	198 
1	199 
1	200 
1	201 
1	202 
1	203 
1	204 
1	205 
1	206 
1	207 
1	208 
1	209 
1	210 
1	211 
1	212 
1	213 
1	214 
1	215 
1	216 
1	217 
1	218 
1	219 
1	220 
1	221 
1	222 
1	223 
1	224 
1	225 
1	226 
1	227 
1	228 
1	229 
1	230 
1	231 
1	232 
2	1 3 
2	1 4 
2	1 26 
2	1 111 
2	1 113 
2	2 3 
2	2 4 
2	2 206 
2	3 4 
2	3 26 
2	4 111 
2	4 205 
2	4 206 
2	5 8 
2	5 10 
2	5 12 
2	5 14 
2	6 7 
2	6 9 
2	6 11 
2	6 172 
2	6 174 
2	6 175 
2	7 11 
2	7 139 
2	7 172 
2	7 173 
2	7 231 
2	8 9 
2	8 10 
2	8 11 
2	8 12 
2	8 136 
2	8 140 
2	9 11 
2	9 12 
2	9 174 
2	9 230 
2	10 16 
2	10 135 
2	10 136 
2	11 139 
2	11 140 
2	12 174 
2	12 230 
2	13 15 
2	13 16 
2	13 137 
2	13 138 
2	13 142 
2	13 190 
2	14 15 
2	14 16 
2	15 16 
2	15 190 
2	16 135 
2	16 137 
2	17 18 
2	17 19 
2	17 65 
2	17 79 
2	17 80 
2	17 176 
2	18 26 
2	18 77 
2	18 80 
2	18 113 
2	18 176 
2	18 177 
2	18 208 
2	19 65 
2	19 66 
2	19 79 
2	19 159 
2	19 164 
2	19 224 
2	20 21 
2	20 22 
2	20 98 
2	20 100 
2	20 202 
2	20 203 
2	21 22 
2	21 98 
2	22 23 
2	22 203 
2	23 24 
2	23 28 
2	23 33 
2	24 25 
2	24 32 
2	24 33 
2	25 32 
2	26 113 
2	26 177 
2	27 29 
2	27 30 
2	27 31 
2	27 33 
2	27 195 
2	27 197 
2	27 198 
2	27 204 
2	28 30 
2	28 33 
2	28 200 
2	28 203 
2	29 31 
2	29 32 
2	29 33 
2	30 33 
2	30 200 
2	30 204 
2	31 194 
2	31 198 
2	32 33 
2	34 35 
2	34 36 
2	34 37 
2	34 38 
2	34 152 
2	34 205 
2	35 36 
2	35 37 
2	35 112 
2	35 207 
2	35 210 
2	36 38 
2	36 207 
2	36 211 
2	37 111 
2	37 112 
2	37 205 
2	38 152 
2	38 153 
2	38 155 
2	38 211 
2	39 40 
2	39 42 
2	39 103 
2	39 145 
2	39 185 
2	39 187 
2	40 43 
2	40 144 
2	40 145 
2	40 186 
2	40 187 
2	41 42 
2	41 104 
2	41 105 
2	41 110 
2	41 188 
2	42 103 
2	42 104 
2	42 185 
2	42 188 
2	43 144 
2	43 147 
2	43 150 
2	43 151 
2	43 186 
2	44 45 
2	44 47 
2	44 126 
2	44 127 
2	44 183 
2	45 46 
2	45 47 
2	45 48 
2	45 182 
2	45 183 
2	46 48 
2	46 49 
2	46 182 
2	46 184 
2	47 48 
2	47 126 
2	47 128 
2	49 184 
2	50 52 
2	50 53 
2	50 54 
2	50 56 
2	50 67 
2	50 72 
2	51 55 
2	51 56 
2	51 59 
2	52 54 
2	52 55 
2	52 56 
2	52 118 
2	53 56 
2	53 67 
2	54 71 
2	54 72 
2	54 114 
2	54 118 
2	55 57 
2	55 117 
2	57 59 
2	57 60 
2	57 116 
2	57 117 
2	58 59 
2	58 60 
2	58 141 
2	58 189 
2	59 60 
2	60 115 
2	60 116 
2	60 141 
2	60 143 
2	61 62 
2	61 63 
2	61 148 
2	61 149 
2	61 157 
2	61 158 
2	62 63 
2	62 146 
2	62 148 
2	62 213 
2	62 218 
2	62 219 
2	63 122 
2	63 157 
2	63 215 
2	63 218 
2	64 101 
2	64 102 
2	64 163 
2	65 66 
2	65 176 
2	66 164 
2	67 69 
2	67 72 
2	68 69 
2	68 70 
2	68 91 
2	69 70 
2	69 72 
2	70 71 
2	70 72 
2	70 89 
2	70 91 
2	70 92 
2	71 72 
2	71 90 
2	71 92 
2	71 114 
2	73 74 
2	73 75 
2	73 76 
2	73 206 
2	74 76 
2	75 76 
2	75 152 
2	75 154 
2	75 205 
2	75 206 
2	76 154 
2	77 78 
2	77 80 
2	77 208 
2	78 80 
2	78 81 
2	78 208 
2	78 209 
2	79 80 
2	79 82 
2	79 83 
2	79 224 
2	80 81 
2	80 82 
2	81 82 
2	81 165 
2	81 209 
2	82 83 
2	82 165 
2	82 168 
2	83 134 
2	83 168 
2	83 224 
2	83 227 
2	83 228 
2	84 85 
2	84 87 
2	84 97 
2	84 105 
2	84 188 
2	85 88 
2	85 97 
2	85 105 
2	85 107 
2	85 135 
2	85 136 
2	86 88 
2	86 127 
2	86 139 
2	86 191 
2	86 192 
2	86 232 
2	87 96 
2	87 97 
2	87 185 
2	87 187 
2	87 188 
2	88 107 
2	88 139 
2	88 140 
2	88 192 
2	89 91 
2	89 92 
2	89 178 
2	89 180 
2	90 92 
2	90 93 
2	90 114 
2	90 122 
2	90 179 
2	91 180 
2	92 178 
2	92 179 
2	93 94 
2	93 114 
2	93 118 
2	93 157 
2	93 158 
2	94 95 
2	94 116 
2	94 117 
2	94 118 
2	94 156 
2	94 158 
2	95 96 
2	95 115 
2	95 116 
2	95 156 
2	96 97 
2	96 115 
2	96 137 
2	96 138 
2	96 156 
2	96 187 
2	97 135 
2	97 137 
2	98 99 
2	98 100 
2	98 101 
2	99 100 
2	99 101 
2	99 102 
2	99 162 
2	100 160 
2	100 162 
2	100 202 
2	101 102 
2	102 159 
2	102 161 
2	102 162 
2	102 163 
2	103 104 
2	103 145 
2	103 168 
2	104 108 
2	104 110 
2	104 165 
2	104 168 
2	105 107 
2	105 110 
2	105 188 
2	106 107 
2	106 108 
2	106 109 
2	106 110 
2	106 192 
2	106 193 
2	107 110 
2	107 192 
2	108 109 
2	108 110 
2	108 165 
2	108 209 
2	109 193 
2	109 209 
2	109 210 
2	111 112 
2	111 113 
2	111 205 
2	111 208 
2	112 208 
2	112 210 
2	113 208 
2	114 118 
2	115 116 
2	115 138 
2	115 143 
2	116 117 
2	117 118 
2	119 120 
2	119 121 
2	119 122 
2	119 215 
2	119 217 
2	120 121 
2	120 181 
2	120 221 
2	121 122 
2	121 179 
2	121 181 
2	122 157 
2	122 179 
2	122 215 
2	123 125 
2	123 128 
2	123 211 
2	123 223 
2	124 125 
2	124 126 
2	124 127 
2	124 129 
2	124 207 
2	124 211 
2	125 126 
2	125 128 
2	125 211 
2	126 127 
2	126 128 
2	127 129 
2	127 183 
2	127 191 
2	127 232 
2	129 191 
2	129 193 
2	129 207 
2	129 210 
2	130 131 
2	130 133 
2	130 160 
2	130 167 
2	130 169 
2	130 229 
2	131 132 
2	131 133 
2	131 225 
2	131 229 
2	132 134 
2	132 226 
2	132 227 
2	132 228 
2	132 229 
2	133 160 
2	133 225 
2	134 227 
2	134 228 
2	135 136 
2	135 137 
2	136 140 
2	137 138 
2	138 142 
2	138 143 
2	139 140 
2	139 231 
2	139 232 
2	141 142 
2	141 143 
2	141 189 
2	142 143 
2	142 189 
2	142 190 
2	144 145 
2	144 147 
2	144 166 
2	144 167 
2	145 166 
2	145 168 
2	146 147 
2	146 148 
2	146 151 
2	146 167 
2	146 169 
2	146 213 
2	147 151 
2	147 167 
2	148 149 
2	148 151 
2	149 150 
2	149 151 
2	149 158 
2	150 151 
2	150 156 
2	150 158 
2	150 186 
2	152 153 
2	152 154 
2	152 205 
2	153 154 
2	153 155 
2	155 211 
2	155 223 
2	156 158 
2	156 186 
2	156 187 
2	157 158 
2	159 161 
2	159 163 
2	159 164 
2	159 224 
2	159 226 
2	159 227 
2	160 162 
2	160 169 
2	160 196 
2	160 201 
2	160 202 
2	160 225 
2	161 162 
2	161 225 
2	161 226 
2	162 225 
2	163 164 
2	165 168 
2	165 209 
2	166 167 
2	166 168 
2	166 228 
2	166 229 
2	167 169 
2	167 229 
2	168 228 
2	169 196 
2	169 199 
2	169 201 
2	169 213 
2	170 171 
2	170 172 
2	170 173 
2	170 175 
2	170 182 
2	170 184 
2	171 175 
2	171 184 
2	172 173 
2	172 175 
2	173 182 
2	173 231 
2	174 175 
2	174 230 
2	176 177 
2	178 179 
2	178 180 
2	178 181 
2	179 181 
2	182 183 
2	182 184 
2	182 231 
2	183 231 
2	183 232 
2	185 187 
2	185 188 
2	186 187 
2	189 190 
2	191 192 
2	191 193 
2	192 193 
2	193 210 
2	194 198 
2	195 196 
2	195 197 
2	195 204 
2	195 213 
2	196 199 
2	196 201 
2	196 204 
2	196 213 
2	197 198 
2	197 212 
2	197 213 
2	197 214 
2	198 212 
2	198 220 
2	199 213 
2	200 201 
2	200 202 
2	200 203 
2	200 204 
2	201 202 
2	201 204 
2	202 203 
2	205 206 
2	207 210 
2	207 211 
2	208 209 
2	208 210 
2	209 210 
2	211 223 
2	212 213 
2	212 214 
2	212 216 
2	212 220 
2	213 214 
2	213 219 
2	214 216 
2	214 217 
2	214 218 
2	214 219 
2	215 217 
2	215 218 
2	216 217 
2	216 220 
2	216 221 
2	217 218 
2	217 221 
2	218 219 
2	220 221 
2	224 227 
2	225 226 
2	226 227 
2	228 229 
2	231 232 
0	

2
 0.252912 1
2
 1 0.295464
2
 0.999237 1
2
 0.993694 1
2
 1 0.977681
2
 1 0.835639
2
 0.315614 1
2
 0.821101 1
2
 0.495725 1
2
 0.910531 1
2
 0.747842 1
2
 0.308779 1
2
 0.800584 1
2
 0.344673 1
2
 1 0.424378
2
 1 0.744744
2
 0.440015 1
2
 1 0.814298
2
 1 0.81701
2
 0.77802 1
2
 0.660323 1
2
 1 0.0650488
2
 1 0.280203
2
 1 0.182005
2
 1 0.294245
2
 1 0.23194
2
 0.492373 1
2
 1 0.0414919
2
 1 0.0452269
2
 1 0.0304858
2
 1 0.0278889
2
 1 0.0519621
2
 1 0.0336901
2
 1 0.0478463
2
 0.884762 1
2
 0.719582 1
2
 0.983651 1
2
 0.775147 1
2
 1 0.880167
2
 0.0732359 1
2
 0.0407155 1
2
 0.0401423 1
2
 0.11511 1
2
 0.20228 1
2
 0.877272 1
2
 0.932237 1
2
 1 0.815888
2
 1 0.944707
2
 1 0.568929
2
 1 0.277297
2
 0.813636 1
2
 1 0.294411
2
 0.757194 1
2
 1 0.778311
2
 0.230933 1
2
 0.816311 1
2
 1 0.685406
2
 0.445641 1
2
 0.877872 1
2
 1 0.664304
2
 0.361469 1
2
 0.0414149 1
2
 0.218643 1
2
 0.238022 1
2
 1 0.251659
2
 1 0.418747
2
 1 0.267654
2
 1 0.710142
2
 1 0.396248
2
 1 0.743769
2
 1 0.780343
2
 0.256997 1
2
 0.744976 1
2
 1 0.403182
2
 1 0.489421
2
 1 0.637862
2
 1 0.240402
2
 0.888121 1
2
 1 0.962408
2
 1 0.373225
2
 0.787724 1
2
 0.963971 1
2
 0.954446 1
2
 1 0.592996
2
 0.373472 1
2
 0.230261 1
2
 0.254429 1
2
 1 0.962316
2
 0.205836 1
2
 1 0.770091
2
 0.305374 1
2
 1 0.924432
2
 1 0.713914
2
 0.137375 1
2
 0.242589 1
2
 0.251848 1
2
 0.1661 1
2
 0.250261 1
2
 0.758851 1
2
 1 0.459442
2
 0.372021 1
2
 1 0.128097
2
 1 0.559504
2
 0.77575 1
2
 1 0.894898
2
 0.81807 1
2
 0.542126 1
2
 0.656453 1
2
 0.996456 1
2
 0.153254 1
2
 0.394005 1
2
 0.840939 1
2
 0.132991 1
2
 0.733833 1
2
 1 0.692412
2
 0.491956 1
2
 1 0.300042
2
 1 0.259657
2
 1 0.300766
2
 1 0.457938
2
 1 0.527259
2
 1 0.359246
2
 0.54298 1
2
 1 0.126704
2
 1 0.322136
2
 1 0.157909
2
 1 0.311802
2
 0.350691 1
2
 1 0.0429773
2
 0.223492 1
2
 0.698967 1
2
 0.368599 1
2
 0.713014 1
2
 0.540637 1
2
 0.584375 1
2
 0.82679 1
2
 1 0.670887
2
 1 0.486376
2
 0.69289 1
2
 0.295479 1
2
 0.537625 1
2
 0.302198 1
2
 0.111802 1
2
 0.242648 1
2
 1 0.697939
2
 0.309441 1
2
 0.557687 1
2
 1 0.777193
2
 0.478784 1
2
 1 0.628534
2
 0.305904 1
2
 1 0.945435
2
 1 0.468437
2
 1 0.654537
2
 1 0.279512
2
 1 0.510349
2
 1 0.257567
2
 0.176276 1
2
 0.331026 1
2
 1 0.677652
2
 0.182927 1
2
 1 0.691236
2
 0.682519 1
2
 1 0.457735
2
 1 0.346604
2
 0.833314 1
2
 0.472256 1
2
 1 0.252932
2
 0.31481 1
2
 1 0.773508
2
 1 0.565827
2
 1 0.360523
2
 1 0.677151
2
 1 0.517889
2
 1 0.372968
2
 1 0.280005
2
 1 0.218657
2
 1 0.816257
2
 0.988378 1
2
 1 0.488579
2
 1 0.707049
2
 1 0.815584
2
 1 0.230107
2
 1 0.621835
2
 1 0.213109
2
 0.185974 1
2
 0.489686 1
2
 0.461464 1
2
 0.218241 1
2
 0.941602 1
2
 0.852576 1
2
 0.135355 1
2
 0.0642659 1
2
 0.052032 1
2
 1 0.117587
2
 1 0.35488
2
 0.534861 1
2
 1 0.265949
2
 1 0.343389
2
 0.205908 1
2
 1 0.0648317
2
 1 0.490232
2
 1 0.25236
2
 1 0.0638278
2
 1 0.103132
2
 0.924575 1
2
 1 0.708399
2
 1 0.442845
2
 0.667957 1
2
 1 0.468854
2
 0.381307 1
2
 1 0.542147
2
 1 0.502196
2
 0.290021 1
2
 1 0.958926
2
 0.275739 1
2
 1 0.230343
2
 1 0.459996
2
 0.404554 1
2
 0.501756 1
2
 1 0.122887
2
 1 0.276707
2
 0.252912 1
2
 1 0.333952
2
 1 0.794135
2
 0.652923 1
2
 0.648428 1
2
 1 0.560106
2
 0.714888 1
2
 0.743064 1
2
 1 0.246011
2
 0.947336 1
2
 0.439258 1
4
 1 0.298382 0.298382 0.968295
4
 1 0.29527 0.29527 0.973474
4
 1 0.300021 0.300021 0.968676
4
 1 0.294968 0.294968 0.977857
4
 1 0.29705 0.29705 0.974677
4
 1 0.296211 0.296211 0.966827
4
 1 0.293121 0.293121 0.971998
4
 1 0.291373 0.291373 0.971016
4
 1 0.29587 0.29587 0.970308
4
 1 0.300631 0.300631 0.965526
4
 1 0.292485 0.292485 0.97989
4
 1 0.28991 0.28991 0.979284
4
 1 0.291038 0.291038 0.974512
4
 0.937033 0.249787 0.249787 1
4
 0.937874 0.251652 0.251652 1
4
 0.931158 0.245973 0.245973 1
4
 0.932727 0.249427 0.249427 1
4
 0.938878 0.244333 0.244333 1
4
 0.933568 0.242643 0.242643 1
4
 0.938245 0.245417 0.245417 1
4
 0.933988 0.240321 0.240321 1
4
 0.929958 0.239732 0.239732 1
4
 0.929906 0.238028 0.238028 1
4
 0.942522 0.247713 0.247713 1
4
 0.946713 0.249382 0.249382 1
4
 0.938246 0.242569 0.242569 1
4
 0.94247 0.244725 0.244725 1
4
 0.946713 0.247725 0.247725 1
4
 0.937033 0.247301 0.247301 1
4
 0.942415 0.253327 0.253327 1
4
 0.941728 0.250127 0.250127 1
4
 0.935666 0.24761 0.24761 1
4
 0.946924 0.255321 0.255321 1
4
 0.946552 0.253644 0.253644 1
4
 0.937191 0.246 0.246 1
4
 0.931159 0.243524 0.243524 1
4
 0.928914 0.240302 0.240302 1
4
 0.93001 0.241449 0.241449 1
4
 0.944109 0.257124 0.257124 1
4
 0.948733 0.259388 0.259388 1
4
 0.947774 0.257227 0.257227 1
4
 0.946075 0.250488 0.250488 1
4
 0.946712 0.25231 0.25231 1
4
 0.927558 0.240602 0.240602 1
4
 0.928652 0.241751 0.241751 1
4
 0.940933 0.25853 0.25853 1
4
 0.945541 0.260806 0.260806 1
4
 0.950865 0.26514 0.26514 1
4
 0.951772 0.267243 0.267243 1
4
 0.946656 0.264245 0.264245 1
4
 0.941091 0.259755 0.259755 1
4
 0.934352 0.252626 0.252626 1
4
 0.938928 0.254851 0.254851 1
4
 0.940352 0.256782 0.256782 1
4
 0.935926 0.255747 0.255747 1
4
 0.949585 0.261325 0.261325 1
4
 0.950278 0.263348 0.263348 1
4
 1 0.304266 0.304266 0.973476
4
 1 0.310381 0.310381 0.96993
4
 1 0.309957 0.309957 0.966342
4
 1 0.306015 0.306015 0.97561
4
 1 0.303811 0.303811 0.977474
4
 1 0.307947 0.307947 0.967427
4
 1 0.301736 0.301736 0.970582
4
 1 0.299251 0.299251 0.979507
4
 1 0.300742 0.300742 0.979287
4
 1 0.298749 0.298749 0.976595
4
 1 0.304835 0.304835 0.969221
4
 1 0.303106 0.303106 0.970201
4
 1 0.296183 0.296183 0.983143
4
 1 0.312993 0.312993 0.964607
4
 1 0.315413 0.315413 0.963147
4
 1 0.309012 0.309012 0.973859
4
 1 0.315131 0.315131 0.968353
4
 1 0.317114 0.317114 0.962876
4
 1 0.310806 0.310806 0.973532
4
 1 0.343129 0.343129 0.949458
4
 1 0.344731 0.344731 0.949939
4
 1 0.34009 0.34009 0.951272
4
 1 0.337677 0.337677 0.956575
4
 1 0.338999 0.338999 0.957597
4
 1 0.341844 0.341844 0.954966
4
 1 0.346848 0.346848 0.946318
4
 1 0.342178 0.342178 0.947647
4
 1 0.350885 0.350885 0.945682
4
 1 0.345548 0.345548 0.951808
4
 1 0.355639 0.355639 0.94372
4
 1 0.349966 0.349966 0.950366
4
 1 0.35255 0.35255 0.949407
4
 1 0.360457 0.360457 0.941762
4
 1 0.358023 0.358023 0.946533
4
 1 0.354864 0.354864 0.948555
4
 1 0.360508 0.360508 0.945418
4
 1 0.299289 0.299289 0.97189
4
 1 0.303654 0.303654 0.965527
4
 1 0.34837 0.34837 0.964344
4
 1 0.343888 0.343888 0.966946
4
 1 0.346703 0.346703 0.968523
4
 1 0.347809 0.347809 0.96191
4
 1 0.339426 0.339426 0.974468
4
 1 0.34085 0.34085 0.974578
4
 1 0.344599 0.344599 0.972446
4
 1 0.340267 0.340267 0.971463
4
 1 0.345266 0.345266 0.960236
4
 1 0.349203 0.349203 0.955235
4
 1 0.342444 0.342444 0.961099
4
 1 0.344643 0.344643 0.956523
4
 1 0.35123 0.35123 0.963262
4
 1 0.355487 0.355487 0.954647
4
 1 0.35235 0.35235 0.956685
4
 1 0.347816 0.347816 0.959267
4
 1 0.341084 0.341084 0.965155
4
 1 0.340274 0.340274 0.968793
4
 1 0.349497 0.349497 0.969231
4
 1 0.347428 0.347428 0.971355
4
 1 0.354913 0.354913 0.952237
4
 1 0.282865 0.282865 0.996424
4
 1 0.28059 0.28059 0.998216
4
 1 0.284538 0.284538 0.991067
4
 1 0.279505 0.279505 0.997375
4
 1 0.280611 0.280611 0.99296
4
 1 0.284758 0.284758 0.987789
4
 0.997857 0.28038 0.28038 1
4
 1 0.284936 0.284936 0.994971
4
 1 0.285719 0.285719 0.996648
4
 0.994166 0.278329 0.278329 1
4
 0.995842 0.281299 0.281299 1
4
 0.996906 0.276785 0.276785 1
4
 0.992382 0.275595 0.275595 1
4
 0.99138 0.272843 0.272843 1
4
 1 0.28939 0.28939 0.986958
4
 1 0.287408 0.287408 0.99129
4
 1 0.286842 0.286842 0.986348
4
 1 0.277665 0.277665 0.997822
4
 0.998195 0.274219 0.274219 1
4
 0.994223 0.272035 0.272035 1
4
 0.992215 0.272017 0.272017 1
4
 0.985269 0.293771 0.293771 1
4
 0.984219 0.290218 0.290218 1
4
 0.989372 0.294082 0.294082 1
4
 0.990706 0.296886 0.296886 1
4
 0.980027 0.287717 0.287717 1
4
 0.979972 0.289507 0.289507 1
4
 0.986874 0.297758 0.297758 1
4
 0.991595 0.300602 0.300602 1
4
 0.990928 0.298432 0.298432 1
4
 0.981899 0.294256 0.294256 1
4
 0.980192 0.291015 0.291015 1
4
 0.982563 0.286199 0.286199 1
4
 0.986987 0.287781 0.287781 1
4
 0.976952 0.27939 0.27939 1
4
 0.981406 0.282475 0.282475 1
4
 0.977116 0.281183 0.281183 1
4
 0.988539 0.292038 0.292038 1
4
 0.987818 0.289795 0.289795 1
4
 0.979203 0.285717 0.285717 1
4
 0.977939 0.28315 0.28315 1
4
 0.992988 0.303104 0.303104 1
4
 0.994271 0.305852 0.305852 1
4
 0.985821 0.300102 0.300102 1
4
 0.990704 0.303897 0.303897 1
4
 0.983278 0.296705 0.296705 1
4
 0.953008 0.24686 0.24686 1
4
 0.958052 0.249014 0.249014 1
4
 0.962635 0.253497 0.253497 1
4
 0.963229 0.255648 0.255648 1
4
 0.956922 0.250741 0.250741 1
4
 0.942948 0.239282 0.239282 1
4
 0.953062 0.245333 0.245333 1
4
 0.947832 0.241951 0.241951 1
4
 0.943795 0.241069 0.241069 1
4
 0.951938 0.247034 0.247034 1
4
 0.942737 0.238043 0.238043 1
4
 0.932366 0.231803 0.231803 1
4
 0.938722 0.237174 0.237174 1
4
 0.930639 0.231339 0.231339 1
4
 0.952848 0.244062 0.244062 1
4
 0.962689 0.251929 0.251929 1
4
 0.96296 0.250419 0.250419 1
4
 0.925169 0.227788 0.227788 1
4
 0.954337 0.285856 0.285856 1
4
 0.948673 0.28322 0.28322 1
4
 0.956482 0.289286 0.289286 1
4
 0.94862 0.281676 0.281676 1
4
 0.949899 0.285788 0.285788 1
4
 0.954336 0.289212 0.289212 1
4
 0.948568 0.277352 0.277352 1
4
 0.944104 0.275774 0.275774 1
4
 0.942198 0.27165 0.27165 1
4
 0.958418 0.289305 0.289305 1
4
 0.955035 0.283306 0.283306 1
4
 0.95054 0.281694 0.281694 1
4
 0.961059 0.289142 0.289142 1
4
 0.944899 0.279096 0.279096 1
4
 0.946172 0.28317 0.28317 1
4
 0.963598 0.296516 0.296516 1
4
 0.958417 0.292701 0.292701 1
4
 0.964789 0.295596 0.295596 1
4
 0.96322 0.292611 0.292611 1
4
 0.952732 0.278627 0.278627 1
4
 0.958527 0.283838 0.283838 1
4
 0.946334 0.272898 0.272898 1
4
 0.951236 0.275023 0.275023 1
4
 0.9567 0.279387 0.279387 1
4
 0.957452 0.28168 0.28168 1
4
 0.939663 0.266542 0.266542 1
4
 0.94453 0.268618 0.268618 1
4
 0.941407 0.265302 0.265302 1
4
 0.937345 0.261581 0.261581 1
4
 0.94591 0.271432 0.271432 1
4
 0.955198 0.275314 0.275314 1
4
 0.95627 0.277886 0.277886 1
4
 0.947665 0.270169 0.270169 1
4
 0.951344 0.272539 0.272539 1
4
 0.993543 0.314841 0.314841 1
4
 0.989534 0.312709 0.312709 1
4
 0.99254 0.312218 0.312218 1
4
 0.986705 0.307425 0.307425 1
4
 0.984436 0.30823 0.30823 1
4
 0.982338 0.303844 0.303844 1
4
 0.994938 0.317461 0.317461 1
4
 1 0.318778 0.318778 0.998561
4
 0.997961 0.316963 0.316963 1
4
 1 0.322902 0.322902 0.995203
4
 1 0.322846 0.322846 0.999796
4
 1 0.32336 0.32336 0.996378
4
 0.98809 0.315195 0.315195 1
4
 0.985818 0.310795 0.310795 1
4
 0.992037 0.317726 0.317726 1
4
 0.996168 0.320725 0.320725 1
4
 1 0.330639 0.330639 0.952339
4
 1 0.326747 0.326747 0.956734
4
 1 0.32623 0.32623 0.954534
4
 1 0.314982 0.314982 0.959583
4
 1 0.310538 0.310538 0.962118
4
 1 0.319129 0.319129 0.957861
4
 0.948512 0.288541 0.288541 1
4
 0.95182 0.289161 0.289161 1
4
 0.950751 0.29423 0.29423 1
4
 0.955621 0.29787 0.29787 1
4
 0.955621 0.300363 0.300363 1
4
 0.954496 0.294976 0.294976 1
4
 0.952943 0.291998 0.291998 1
4
 0.963002 0.299464 0.299464 1
4
 0.957825 0.29561 0.29561 1
4
 0.962137 0.301738 0.301738 1
4
 0.959385 0.301125 0.301125 1
4
 0.96495 0.302494 0.302494 1
4
 0.961436 0.29644 0.29644 1
4
 0.971366 0.303961 0.303961 1
4
 0.968588 0.303343 0.303343 1
4
 0.967827 0.299372 0.299372 1
4
 1 0.285647 0.285647 0.972106
4
 1 0.285589 0.285589 0.976373
4
 1 0.283834 0.283834 0.976976
4
 1 0.288528 0.288528 0.972325
4
 1 0.281753 0.281753 0.977963
4
 1 0.281696 0.281696 0.982256
4
 1 0.281091 0.281091 0.987511
4
 1 0.279775 0.279775 0.98679
4
 1 0.285245 0.285245 0.982368
4
 1 0.286355 0.286355 0.97758
4
 1 0.278056 0.278056 0.987399
4
 1 0.294823 0.294823 0.988735
4
 1 0.298804 0.298804 0.98353
4
 1 0.294275 0.294275 0.987403
4
 1 0.296292 0.296292 0.988513
4
 1 0.292999 0.292999 0.994805
4
 1 0.2918 0.2918 0.992405
4
 1 0.28964 0.28964 0.998666
4
 1 0.302471 0.302471 0.981434
4
 1 0.301896 0.301896 0.985521
4
 1 0.304125 0.304125 0.984526
4
 1 0.306434 0.306434 0.979233
4
 1 0.296955 0.296955 0.989568
4
 1 0.299722 0.299722 0.987404
4
 1 0.296391 0.296391 0.993689
4
 1 0.293519 0.293519 0.998443
4
 1 0.290288 0.290288 0.999733
4
 1 0.301361 0.301361 0.990515
4
 1 0.296254 0.296254 0.996259
4
 1 0.299796 0.299796 0.994863
4
 1 0.306068 0.306068 0.988182
4
 1 0.30201 0.30201 0.993858
4
 1 0.30589 0.30589 0.984195
4
 1 0.307802 0.307802 0.984029
4
 1 0.305398 0.305398 0.990293
4
 0.964362 0.269592 0.269592 1
4
 0.967724 0.276091 0.276091 1
4
 0.964362 0.271849 0.271849 1
4
 0.969302 0.273839 0.273839 1
4
 0.969465 0.275596 0.275596 1
4
 0.962092 0.264379 0.264379 1
4
 0.962307 0.268428 0.268428 1
4
 0.967237 0.270393 0.270393 1
4
 0.966857 0.268617 0.268617 1
4
 0.958263 0.26491 0.26491 1
4
 0.957295 0.262702 0.262702 1
4
 0.961174 0.260555 0.260555 1
4
 0.964473 0.259691 0.259691 1
4
 0.955364 0.255345 0.255345 1
4
 0.966099 0.262025 0.262025 1
4
 0.966424 0.263634 0.263634 1
4
 0.959073 0.2563 0.2563 1
4
 0.966963 0.278447 0.278447 1
4
 0.965662 0.274899 0.274899 1
4
 0.972026 0.281215 0.281215 1
4
 0.971971 0.282965 0.282965 1
4
 0.970772 0.278688 0.278688 1
4
 0.96664 0.26678 0.26678 1
4
 0.956061 0.257321 0.257321 1
4
 0.956705 0.259193 0.259193 1
4
 0.967129 0.265675 0.265675 1
4
 0.962136 0.304264 0.304264 1
4
 0.967717 0.305647 0.305647 1
4
 0.969729 0.309399 0.309399 1
4
 0.966848 0.307969 0.307969 1
4
 0.973331 0.307037 0.307037 1
4
 0.97563 0.304849 0.304849 1
4
 0.972567 0.303017 0.303017 1
4
 0.980683 0.311349 0.311349 1
4
 0.977274 0.310681 0.310681 1
4
 0.964082 0.307343 0.307343 1
4
 0.972565 0.310173 0.310173 1
4
 0.974479 0.310049 0.310049 1
4
 0.973224 0.297683 0.297683 1
4
 0.972076 0.300247 0.300247 1
4
 0.970495 0.297216 0.297216 1
4
 0.977934 0.304195 0.304195 1
4
 0.975851 0.299867 0.299867 1
4
 0.96968 0.289304 0.289304 1
4
 0.966527 0.287778 0.287778 1
4
 0.967286 0.29014 0.29014 1
4
 0.96859 0.292907 0.292907 1
4
 0.972024 0.291235 0.291235 1
4
 0.973935 0.295519 0.295519 1
4
 0.966474 0.281477 0.281477 1
4
 0.963818 0.281166 0.281166 1
4
 0.9649 0.283792 0.283792 1
4
 0.970388 0.287201 0.287201 1
4
 0.963603 0.274169 0.274169 1
4
 0.96225 0.2774 0.2774 1
4
 0.960254 0.27267 0.27267 1
4
 0.961171 0.274833 0.274833 1
4
 0.96881 0.283355 0.283355 1
4
 0.969899 0.282213 0.282213 1
4
 0.958262 0.267127 0.267127 1
4
 0.958962 0.269195 0.269195 1
4
 1 0.335544 0.335544 0.95325
4
 1 0.336741 0.336741 0.95475
4
 1 0.336227 0.336227 0.95015
4
 1 0.333164 0.333164 0.958564
4
 1 0.332655 0.332655 0.953945
4
 1 0.328739 0.328739 0.958348
4
 1 0.32983 0.32983 0.960989
4
 1 0.332241 0.332241 0.965099
4
 1 0.331006 0.331006 0.962501
4
 1 0.33566 0.33566 0.961098
4
 1 0.329408 0.329408 0.955231
4
 1 0.321161 0.321161 0.964068
4
 1 0.324052 0.324052 0.962662
4
 1 0.32661 0.32661 0.962284
4
 1 0.325015 0.325015 0.957432
4
 0.99299 0.293653 0.293653 1
4
 0.995055 0.298747 0.298747 1
4
 0.997741 0.298441 0.298441 1
4
 0.991097 0.288566 0.288566 1
4
 0.986655 0.286024 0.286024 1
4
 0.995615 0.292239 0.292239 1
4
 0.997013 0.296149 0.296149 1
4
 0.97181 0.272848 0.272848 1
4
 0.976623 0.277684 0.277684 1
4
 0.972355 0.276414 0.276414 1
4
 0.976021 0.273974 0.273974 1
4
 0.985272 0.281309 0.281309 1
4
 0.984609 0.278812 0.278812 1
4
 0.980856 0.27883 0.27883 1
4
 0.976515 0.272839 0.272839 1
4
 0.981077 0.275189 0.275189 1
4
 0.97624 0.275861 0.275861 1
4
 0.97192 0.269933 0.269933 1
4
 0.989263 0.283227 0.283227 1
4
 0.985493 0.283245 0.283245 1
4
 0.994442 0.2894 0.2894 1
4
 0.99316 0.285845 0.285845 1
4
 0.985052 0.277066 0.277066 1
4
 0.992491 0.283308 0.283308 1
4
 0.99032 0.28008 0.28008 1
4
 1 0.290185 0.290185 0.988623
4
 1 0.294249 0.294249 0.981102
4
 1 0.289614 0.289614 0.983694
4
 1 0.291722 0.291722 0.98768
4
 1 0.289723 0.289723 0.992015
4
 0.999539 0.284793 0.284793 1
4
 1 0.293781 0.293781 0.984468
4
 0.967448 0.29543 0.29543 1
4
 0.960684 0.279682 0.279682 1
4
 0.958529 0.274529 0.274529 1
4
 0.955734 0.274301 0.274301 1
4
 0.962519 0.284612 0.284612 1
4
 0.964574 0.289685 0.289685 1
4
 0.994433 0.327947 0.327947 1
4
 0.989699 0.322685 0.322685 1
4
 0.98931 0.320032 0.320032 1
4
 0.993262 0.322602 0.322602 1
4
 0.997398 0.327826 0.327826 1
4
 0.990755 0.325548 0.325548 1
4
 0.989753 0.326625 0.326625 1
4
 1 0.334865 0.334865 0.998901
4
 0.985651 0.317691 0.317691 1
4
 0.982225 0.31701 0.31701 1
4
 0.985041 0.321384 0.321384 1
4
 0.982999 0.31068 0.31068 1
4
 0.981839 0.314403 0.314403 1
4
 0.9892 0.317609 0.317609 1
4
 0.977232 0.260232 0.260232 1
4
 0.97236 0.256008 0.256008 1
4
 0.981797 0.26335 0.26335 1
4
 0.980145 0.26057 0.26057 1
4
 0.978164 0.263612 0.263612 1
4
 0.973015 0.260897 0.260897 1
4
 0.973615 0.26311 0.26311 1
4
 0.979592 0.267263 0.267263 1
4
 0.983727 0.269461 0.269461 1
4
 0.982733 0.266771 0.266771 1
4
 0.972414 0.259134 0.259134 1
4
 0.972688 0.257581 0.257581 1
4
 0.982127 0.264968 0.264968 1
4
 0.967892 0.25864 0.25864 1
4
 0.967567 0.254927 0.254927 1
4
 0.974435 0.264951 0.264951 1
4
 0.962148 0.255828 0.255828 1
4
 0.970122 0.263178 0.263178 1
4
 0.963067 0.257428 0.257428 1
4
 0.976078 0.267332 0.267332 1
4
 0.980968 0.271291 0.271291 1
4
 0.984555 0.271347 0.271347 1
4
 0.986215 0.274242 0.274242 1
4
 1 0.320165 0.320165 0.982541
4
 1 0.32336 0.32336 0.979182
4
 1 0.325951 0.325951 0.976766
4
 1 0.318154 0.318154 0.987908
4
 1 0.322422 0.322422 0.984973
4
 1 0.317671 0.317671 0.986078
4
 1 0.316668 0.316668 0.981548
4
 1 0.321705 0.321705 0.978302
4
 1 0.321217 0.321217 0.976491
4
 1 0.316045 0.316045 0.985192
4
 1 0.31168 0.31168 0.984141
4
 1 0.316603 0.316603 0.977313
4
 1 0.313445 0.313445 0.980005
4
 1 0.310997 0.310997 0.986243
4
 1 0.314201 0.314201 0.985081
4
 1 0.327518 0.327518 0.972552
4
 1 0.324422 0.324422 0.973152
4
 1 0.310318 0.310318 0.982705
4
 1 0.307895 0.307895 0.98896
4
 0.953272 0.26143 0.26143 1
4
 0.954932 0.265667 0.265667 1
4
 0.951935 0.257549 0.257549 1
4
 0.956541 0.269848 0.269848 1
4
 0.952307 0.268937 0.268937 1
4
 0.954662 0.271762 0.271762 1
4
 0.950921 0.25401 0.25401 1
4
 0.950281 0.2505 0.2505 1
4
 0.95397 0.25312 0.25312 1
4
 0.945858 0.266375 0.266375 1
4
 0.948197 0.269174 0.269174 1
4
 0.940456 0.263091 0.263091 1
4
 0.94953 0.268713 0.268713 1
4
 0.941777 0.26264 0.26264 1
4
 0.941619 0.261401 0.261401 1
4
 0.997067 0.303789 0.303789 1
4
 0.999028 0.308773 0.308773 1
4
 1 0.307171 0.307171 0.998615
4
 1 0.310589 0.310589 0.997326
4
 1 0.305158 0.305158 0.999287
4
 0.999086 0.301287 0.301287 1
4
 1 0.314523 0.314523 0.997887
4
 1 0.316441 0.316441 0.99957
4
 0.998522 0.313175 0.313175 1
4
 1 0.316066 0.316066 0.994252
4
 1 0.320307 0.320307 0.991298
4
 1 0.321712 0.321712 0.992747
4
 0.99673 0.309581 0.309581 1
4
 1 0.313001 0.313001 0.99604
4
 0.991092 0.309497 0.309497 1
4
 0.995052 0.310944 0.310944 1
4
 0.984326 0.302347 0.302347 1
4
 0.989202 0.306171 0.306171 1
4
 0.980905 0.301196 0.301196 1
4
 0.988259 0.303761 0.303761 1
4
 0.978046 0.294493 0.294493 1
4
 0.97997 0.298825 0.298825 1
4
 0.980851 0.296572 0.296572 1
4
 1 0.275802 0.275802 0.997374
4
 1 0.277459 0.277459 0.992681
4
 1 0.282883 0.282883 0.988232
4
 1 0.274511 0.274511 0.996646
4
 0.994671 0.27033 0.27033 1
4
 0.988712 0.26816 0.26816 1
4
 0.987048 0.265329 0.265329 1
4
 0.974647 0.293371 0.293371 1
4
 0.975524 0.29116 0.29116 1
4
 0.973828 0.287953 0.287953 1
4
 0.978649 0.301984 0.301984 1
4
 1 0.319703 0.319703 0.967104
4
 1 0.320654 0.320654 0.96185
4
 1 0.318844 0.318844 0.963039
4
 1 0.312502 0.312502 0.973696
4
 1 0.317623 0.317623 0.970858
4
 1 0.314454 0.314454 0.973533
4
 1 0.328916 0.328916 0.96754
4
 1 0.326569 0.326569 0.978303
4
 1 0.329859 0.329859 0.975616
4
 1 0.330936 0.330936 0.97228
4
 1 0.333541 0.333541 0.96613
4
 1 0.327022 0.327022 0.970751
4
 1 0.325127 0.325127 0.965315
4
 1 0.323255 0.323255 0.968518
4
 1 0.320481 0.320481 0.969442
4
 1 0.325807 0.325807 0.968138
4
 1 0.32267 0.32267 0.956411
4
 1 0.296892 0.296892 0.999622
4
 0.997687 0.289483 0.289483 1
4
 1 0.311074 0.311074 0.993693
4
 1 0.304024 0.304024 0.996597
4
 1 0.307435 0.307435 0.993022
4
 1 0.310603 0.310603 0.991853
4
 1 0.318756 0.318756 0.989462
4
 1 0.31406 0.31406 0.990573
4
 1 0.303812 0.303812 0.99464
4
 1 0.326288 0.326288 0.983813
4
 1 0.324908 0.324908 0.986191
4
 1 0.327353 0.327353 0.980448
4
 1 0.324451 0.324451 0.987964
4
 0.926832 0.231975 0.231975 1
4
 0.932312 0.236772 0.236772 1
4
 0.936509 0.238876 0.238876 1
4
 0.928237 0.234513 0.234513 1
4
 0.935406 0.23695 0.23695 1
4
 0.927352 0.231121 0.231121 1
4
 0.923818 0.231521 0.231521 1
4
 0.922937 0.228172 0.228172 1
4
 0.937561 0.240706 0.240706 1
4
 0.92928 0.23631 0.23631 1
4
 0.940673 0.240887 0.240887 1
4
 0.946023 0.245822 0.245822 1
4
 0.92527 0.235731 0.235731 1
4
 0.926413 0.238552 0.238552 1
4
 1 0.306773 0.306773 0.964173
4
 0.976505 0.313855 0.313855 1
4
 0.971691 0.312529 0.312529 1
4
 0.979305 0.318186 0.318186 1
4
 0.981232 0.318058 0.318058 1
4
 0.947671 0.244858 0.244858 1
4
 0.931475 0.233066 0.233066 1
4
 0.944908 0.24384 0.24384 1
4
 0.953061 0.249874 0.249874 1
4
 0.95676 0.252487 0.252487 1
4
 0.974978 0.285018 0.285018 1
4
 0.973775 0.28071 0.28071 1
4
 0.97662 0.289986 0.289986 1
4
 0.936241 0.258178 0.258178 1
4
 0.972084 0.267174 0.267174 1
4
 0.976626 0.269475 0.269475 1
4
 0.976954 0.27113 0.27113 1
4
 0.986768 0.27644 0.27644 1
4
 1 0.347375 0.347375 0.973157
4
 1 0.332292 0.332292 0.980229
4
 1 0.336435 0.336435 0.97946
4
 1 0.33586 0.33586 0.976329
4
 1 0.33042 0.33042 0.984366
4
 1 0.328182 0.328182 0.983482
4
 1 0.330651 0.330651 0.977755
4
 1 0.333115 0.333115 0.977207
4
 1 0.32772 0.32772 0.98525
4
 1 0.341562 0.341562 0.977428
4
 1 0.338304 0.338304 0.980286
4
 1 0.331806 0.331806 0.984477
4
 1 0.334994 0.334994 0.984312
4
 1 0.342025 0.342025 0.978142
4
 1 0.343655 0.343655 0.979296
4
 1 0.326334 0.326334 0.987632
4
 1 0.334997 0.334997 0.970208
4
 1 0.337634 0.337634 0.964071
4
 1 0.340468 0.340468 0.961423
4
 1 0.337493 0.337493 0.969664
4
 1 0.334342 0.334342 0.968248
4
 1 0.334202 0.334202 0.973865
4
 1 0.339802 0.339802 0.959481
4
 1 0.288181 0.288181 0.978295
4
 0.990377 0.276497 0.276497 1
4
 0.987712 0.270847 0.270847 1
4
 1 0.289101 0.289101 0.997321
4
 1 0.286433 0.286433 0.999507
4
 0.994221 0.282669 0.282669 1
4
 0.985055 0.265312 0.265312 1
4
 1 0.332256 0.332256 0.985196
4
 1 0.335449 0.335449 0.985031
4
 1 0.337661 0.337661 0.984368
4
 1 0.340377 0.340377 0.982159
4
 1 0.329006 0.329006 0.989242
4
 1 0.326337 0.326337 0.990576
4
 1 0.334357 0.334357 0.988411
4
 1 0.33115 0.33115 0.993809
4
 1 0.328949 0.328949 0.993808
4
 1 0.329473 0.329473 0.99041
4
 0.997286 0.325344 0.325344 1
4
 0.997287 0.323181 0.323181 1
4
 1 0.333334 0.333334 0.99314
4
 1 0.33927 0.33927 0.985529
4
 1 0.336979 0.336979 0.990523
4
 1 0.327942 0.327942 0.998563
4
 1 0.333747 0.333747 0.995932
4
 1 0.326281 0.326281 0.995148
4
 1 0.33969 0.33969 0.988301
4
 1 0.310138 0.310138 0.978739
4
 1 0.321151 0.321151 0.972277
4
 1 0.31522 0.31522 0.975886
4
 1 0.310385 0.310385 0.989905
4
 0.953971 0.251437 0.251437 1
1
 1

